s td 39 4 42
b 1 1 2 15
b 2 13 14 28
b 3 15 29 30
b 4 2 15 16 30
b 5 28 41 42
b 6 13 27 28 41
b 7 2 3 16 30
b 8 3 16 17 30
b 9 3 17 30 31
b 10 3 4 17 31
b 11 4 17 18 31
b 12 4 18 31 32
b 13 4 5 18 32
b 14 5 18 19 32
b 15 5 19 32 33
b 16 5 6 19 33
b 17 6 19 20 33
b 18 6 20 33 34
b 19 6 7 20 34
b 20 7 20 21 34
b 21 7 21 34 35
b 22 7 8 21 35
b 23 8 21 22 35
b 24 8 22 35 36
b 25 8 9 22 36
b 26 9 22 23 36
b 27 9 23 36 37
b 28 9 10 23 37
b 29 10 23 24 37
b 30 10 24 37 38
b 31 10 11 24 38
b 32 11 24 25 38
b 33 11 25 38 39
b 34 11 12 25 39
b 35 12 25 26 39
b 36 12 26 39 40
b 37 12 13 26 40
b 38 13 26 27 40
b 39 13 27 40 41
1 4
2 6
3 4
4 7
5 6
6 39
7 8
8 9
9 10
10 11
11 12
12 13
13 14
14 15
15 16
16 17
17 18
18 19
19 20
20 21
21 22
22 23
23 24
24 25
25 26
26 27
27 28
28 29
29 30
30 31
31 32
32 33
33 34
34 35
35 36
36 37
37 38
38 39
